c colouring generated by benchmark framework
p edge 188 3885
v 1 1
v 2 25
v 3 11
v 4 6
v 5 17
v 6 3
v 7 22
v 8 10
v 9 2
v 10 0
v 11 12
v 12 31
v 13 30
v 14 20
v 15 7
v 16 9
v 17 20
v 18 5
v 19 19
v 20 13
v 21 24
v 22 3
v 23 30
v 24 2
v 25 29
v 26 11
v 27 4
v 28 15
v 29 14
v 30 1
v 31 0
v 32 31
v 33 27
v 34 17
v 35 17
v 36 17
v 37 9
v 38 6
v 39 6
v 40 28
v 41 6
v 42 8
v 43 6
v 44 28
v 45 6
v 46 4
v 47 15
v 48 4
v 49 4
v 50 19
v 51 5
v 52 8
v 53 13
v 54 14
v 55 6
v 56 6
v 57 27
v 58 6
v 59 21
v 60 6
v 61 16
v 62 7
v 63 15
v 64 18
v 65 24
v 66 23
v 67 21
v 68 10
v 69 26
v 70 18
v 71 18
v 72 9
v 73 7
v 74 12
v 75 10
v 76 22
v 77 7
v 78 8
v 79 28
v 80 12
v 81 9
v 82 10
v 83 7
v 84 16
v 85 8
v 86 28
v 87 12
v 88 26
v 89 9
v 90 22
v 91 10
v 92 10
v 93 23
v 94 12
v 95 12
v 96 16
v 97 17
v 98 25
v 99 17
v 100 21
v 101 26
v 102 26
v 103 26
v 104 26
v 105 27
v 106 26
v 107 26
v 108 26
v 109 0
v 110 21
v 111 17
v 112 26
v 113 26
v 114 17
v 115 27
v 116 26
v 117 21
v 118 27
v 119 26
v 120 26
v 121 17
v 122 17
v 123 21
v 124 26
v 125 16
v 126 22
v 127 18
v 128 27
v 129 26
v 130 21
v 131 27
v 132 21
v 133 28
v 134 27
v 135 27
v 136 21
v 137 26
v 138 26
v 139 28
v 140 21
v 141 28
v 142 10
v 143 26
v 144 27
v 145 29
v 146 27
v 147 27
v 148 26
v 149 26
v 150 24
v 151 26
v 152 19
v 153 31
v 154 27
v 155 27
v 156 27
v 157 27
v 158 27
v 159 30
v 160 21
v 161 28
v 162 6
v 163 26
v 164 15
v 165 21
v 166 16
v 167 8
v 168 6
v 169 9
v 170 10
v 171 8
v 172 21
v 173 26
v 174 7
v 175 23
v 176 6
v 177 26
v 178 22
v 179 6
v 180 8
v 181 13
v 182 2
v 183 15
v 184 15
v 185 3
v 186 7
v 187 6
v 188 8
